Traveling Salesman Problem/TSP_generados/Aleatorio1621103253_6.tsp
NAME: Aleatorio1621103253_6.tsp
COMMENT: Randomly generated scenario
TYPE: TSP
DIMENSION: 6
EDGE_WEIGHT_TYPE: ATT
NODE_COORD_SECTION
1 6.69 18.61
2 26.54 28.73
3 30.5 12.93
4 3.47 3.31
5 34.78 2.91
6 24.6 49.04
