Traveling Salesman Problem/TSP_generados/Aleatorio1621103253_6.opt.tour
NAME: Aleatorio1621103253_6.opt.tour
COMMENT: Optimal solution for Aleatorio1621103253_6 (129.84406482744134)
TYPE: TOUR
DIMENSION: 6
TOUR_SECTION
1 4 5 3 2 6
-1
EOF
